\ Model shortest_path
\ LP format - for model browsing. Use MPS format to capture full model detail.
Minimize
  0.987 x[1_0,1^0] + 5.583315144248981 x[2_0,2^0] + 3.948 x[2_0,2^1]
   + 4.187486358186735 x[3_0,3^0] + 2.961 x[3_0,3^1] + 8.883 y[4_0,4^0]
   + 12.56245907456021 y[4_1,4^0] + 15.38580732363434 y[4_2,4^0]
Subject To
 UB[4_0,4^0]: x[4_0,4^0] - 3 y[4_0,4^0] <= 0
 UB[4_1,4^0]: x[4_1,4^0] - 3 y[4_1,4^0] <= 0
 UB[4_2,4^0]: x[4_2,4^0] - 3 y[4_2,4^0] <= 0
 netflow[4_0]: x[4_0,4^0] - x[1^0,4_0] - x[2^0,4_0] - x[3^0,4_0] = 0
 netflow[4_1]: x[4_1,4^0] - x[1^1,4_1] - x[2^1,4_1] - x[3^1,4_1] = 0
 netflow[4_2]: x[4_2,4^0] - x[2^2,4_2] - x[3^2,4_2] = 0
 netflow[4^0]: - x[4_0,4^0] - x[4_1,4^0] - x[4_2,4^0] = -3
 netflow[1_0]: x[1_0,1^0] + x[1_0,1^1] = 1
 netflow[1^0]: - x[1_0,1^0] + x[1^0,4_0] = 0
 netflow[1^1]: - x[1_0,1^1] + x[1^1,4_1] = 0
 netflow[2_0]: x[2_0,2^0] + x[2_0,2^1] + x[2_0,2^2] = 1
 netflow[2^0]: - x[2_0,2^0] + x[2^0,4_0] = 0
 netflow[2^1]: - x[2_0,2^1] + x[2^1,4_1] = 0
 netflow[2^2]: - x[2_0,2^2] + x[2^2,4_2] = 0
 netflow[3_0]: x[3_0,3^0] + x[3_0,3^1] + x[3_0,3^2] = 1
 netflow[3^0]: - x[3_0,3^0] + x[3^0,4_0] = 0
 netflow[3^1]: - x[3_0,3^1] + x[3^1,4_1] = 0
 netflow[3^2]: - x[3_0,3^2] + x[3^2,4_2] = 0
Bounds
Binaries
 y[4_0,4^0] y[4_1,4^0] y[4_2,4^0]
End
